  PyCSP3 (Python:3.7.9, Path:C:\Users\HASEE\AppData\Local\Packages\PythonSoftwareFoundation.Python.3.7_qbz5n2kfra8p0\LocalCache\local-packages\Python37\site-packages\pycsp3\compiler.py)

  * Generating the file essai_cop_mod2-band-reformulate_celar_500_30_20_5_0.xml completed in     0.86 seconds.

c Choco e747e1e
s OPTIMUM FOUND
v <instantiation>
v 	<list>freq_emi[0] freq_emi[1] freq_emi[2] freq_emi[3] freq_emi[4] freq_emi[5] freq_emi[6] freq_emi[7] freq_emi[8] freq_emi[9] freq_emi[10] freq_emi[11] freq_emi[12] freq_emi[13] freq_emi[14] freq_emi[15] freq_emi[16] freq_emi[17] freq_emi[18] freq_emi[19] freq_emi[20] freq_emi[21] freq_emi[22] freq_emi[23] freq_emi[24] freq_emi[25] freq_emi[26] freq_emi[27] freq_emi[28] freq_emi[29] freq_emi[30] freq_emi[31] freq_emi[32] freq_emi[33] freq_emi[34] freq_emi[35] freq_emi[36] freq_emi[37] freq_emi[38] freq_emi[39] freq_emi[40] freq_emi[41] freq_emi[42] freq_emi[43] freq_emi[44] freq_emi[45] freq_emi[46] freq_emi[47] freq_emi[48] freq_emi[49] freq_emi[50] freq_emi[51] freq_emi[52] freq_emi[53] freq_emi[54] freq_emi[55] freq_emi[56] freq_emi[57] freq_emi[58] freq_emi[59] freq_emi[60] freq_emi[61] freq_emi[62] freq_emi[63] freq_emi[64] freq_emi[65] freq_emi[66] freq_emi[67] freq_emi[68] freq_emi[69] freq_emi[70] freq_emi[71] freq_emi[72] freq_emi[73] freq_emi[74] freq_emi[75] freq_emi[76] freq_emi[77] freq_emi[78] freq_emi[79] freq_emi[80] freq_emi[81] freq_emi[82] freq_emi[83] freq_emi[84] freq_emi[85] freq_emi[86] freq_emi[87] freq_emi[88] freq_emi[89] freq_emi[90] freq_emi[91] freq_emi[92] freq_emi[93] freq_emi[94] freq_emi[95] freq_emi[96] freq_emi[97] freq_emi[98] freq_emi[99] freq_emi[100] freq_emi[101] freq_emi[102] freq_emi[103] freq_emi[104] freq_emi[105] freq_emi[106] freq_emi[107] freq_emi[108] freq_emi[109] freq_emi[110] freq_emi[111] freq_emi[112] freq_emi[113] freq_emi[114] freq_emi[115] freq_emi[116] freq_emi[117] freq_emi[118] freq_emi[119] freq_emi[120] freq_emi[121] freq_emi[122] freq_emi[123] freq_emi[124] freq_emi[125] freq_emi[126] freq_emi[127] freq_emi[128] freq_emi[129] freq_emi[130] freq_emi[131] freq_emi[132] freq_emi[133] freq_emi[134] freq_emi[135] freq_emi[136] freq_emi[137] freq_emi[138] freq_emi[139] freq_emi[140] freq_emi[141] freq_emi[142] freq_emi[143] freq_emi[144] freq_emi[145] freq_emi[146] freq_emi[147] freq_emi[148] freq_emi[149] freq_emi[150] freq_emi[151] freq_emi[152] freq_emi[153] freq_emi[154] freq_emi[155] freq_emi[156] freq_emi[157] freq_emi[158] freq_emi[159] freq_emi[160] freq_emi[161] freq_emi[162] freq_emi[163] freq_emi[164] freq_emi[165] freq_emi[166] freq_emi[167] freq_emi[168] freq_emi[169] freq_emi[170] freq_emi[171] freq_emi[172] freq_emi[173] freq_emi[174] freq_emi[175] freq_emi[176] freq_emi[177] freq_emi[178] freq_emi[179] freq_emi[180] freq_emi[181] freq_emi[182] freq_emi[183] freq_emi[184] freq_emi[185] freq_emi[186] freq_emi[187] freq_emi[188] freq_emi[189] freq_emi[190] freq_emi[191] freq_emi[192] freq_emi[193] freq_emi[194] freq_emi[195] freq_emi[196] freq_emi[197] freq_emi[198] freq_emi[199] freq_emi[200] freq_emi[201] freq_emi[202] freq_emi[203] freq_emi[204] freq_emi[205] freq_emi[206] freq_emi[207] freq_emi[208] freq_emi[209] freq_emi[210] freq_emi[211] freq_emi[212] freq_emi[213] freq_emi[214] freq_emi[215] freq_emi[216] freq_emi[217] freq_emi[218] freq_emi[219] freq_emi[220] freq_emi[221] freq_emi[222] freq_emi[223] freq_emi[224] freq_emi[225] freq_emi[226] freq_emi[227] freq_emi[228] freq_emi[229] freq_emi[230] freq_emi[231] freq_emi[232] freq_emi[233] freq_emi[234] freq_emi[235] freq_emi[236] freq_emi[237] freq_emi[238] freq_emi[239] freq_emi[240] freq_emi[241] freq_emi[242] freq_emi[243] freq_emi[244] freq_emi[245] freq_emi[246] freq_emi[247] freq_emi[248] freq_emi[249] freq_emi[250] freq_emi[251] freq_emi[252] freq_emi[253] freq_emi[254] freq_emi[255] freq_emi[256] freq_emi[257] freq_emi[258] freq_emi[259] freq_emi[260] freq_emi[261] freq_emi[262] freq_emi[263] freq_emi[264] freq_emi[265] freq_emi[266] freq_emi[267] freq_emi[268] freq_emi[269] freq_emi[270] freq_emi[271] freq_emi[272] freq_emi[273] freq_emi[274] freq_emi[275] freq_emi[276] freq_emi[277] freq_emi[278] freq_emi[279] freq_emi[280] freq_emi[281] freq_emi[282] freq_emi[283] freq_emi[284] freq_emi[285] freq_emi[286] freq_emi[287] freq_emi[288] freq_emi[289] freq_emi[290] freq_emi[291] freq_emi[292] freq_emi[293] freq_emi[294] freq_emi[295] freq_emi[296] freq_emi[297] freq_emi[298] freq_emi[299] freq_emi[300] freq_emi[301] freq_emi[302] freq_emi[303] freq_emi[304] freq_emi[305] freq_emi[306] freq_emi[307] freq_emi[308] freq_emi[309] freq_emi[310] freq_emi[311] freq_emi[312] freq_emi[313] freq_emi[314] freq_emi[315] freq_emi[316] freq_emi[317] freq_emi[318] freq_emi[319] freq_emi[320] freq_emi[321] freq_emi[322] freq_emi[323] freq_emi[324] freq_emi[325] freq_emi[326] freq_emi[327] freq_emi[328] freq_emi[329] freq_emi[330] freq_emi[331] freq_emi[332] freq_emi[333] freq_emi[334] freq_emi[335] freq_emi[336] freq_emi[337] freq_emi[338] freq_emi[339] freq_emi[340] freq_emi[341] freq_emi[342] freq_emi[343] freq_emi[344] freq_emi[345] freq_emi[346] freq_emi[347] freq_emi[348] freq_emi[349] freq_emi[350] freq_emi[351] freq_emi[352] freq_emi[353] freq_emi[354] freq_emi[355] freq_emi[356] freq_emi[357] freq_emi[358] freq_emi[359] freq_emi[360] freq_emi[361] freq_emi[362] freq_emi[363] freq_emi[364] freq_emi[365] freq_emi[366] freq_emi[367] freq_emi[368] freq_emi[369] freq_emi[370] freq_emi[371] freq_emi[372] freq_emi[373] freq_emi[374] freq_emi[375] freq_emi[376] freq_emi[377] freq_emi[378] freq_emi[379] freq_emi[380] freq_emi[381] freq_emi[382] freq_emi[383] freq_emi[384] freq_emi[385] freq_emi[386] freq_emi[387] freq_emi[388] freq_emi[389] freq_emi[390] freq_emi[391] freq_emi[392] freq_emi[393] freq_emi[394] freq_emi[395] freq_emi[396] freq_emi[397] freq_emi[398] freq_emi[399] freq_emi[400] freq_emi[401] freq_emi[402] freq_emi[403] freq_emi[404] freq_emi[405] freq_emi[406] freq_emi[407] freq_emi[408] freq_emi[409] freq_emi[410] freq_emi[411] freq_emi[412] freq_emi[413] freq_emi[414] freq_emi[415] freq_emi[416] freq_emi[417] freq_emi[418] freq_emi[419] freq_emi[420] freq_emi[421] freq_emi[422] freq_emi[423] freq_emi[424] freq_emi[425] freq_emi[426] freq_emi[427] freq_emi[428] freq_emi[429] freq_emi[430] freq_emi[431] freq_emi[432] freq_emi[433] freq_emi[434] freq_emi[435] freq_emi[436] freq_emi[437] freq_emi[438] freq_emi[439] freq_emi[440] freq_emi[441] freq_emi[442] freq_emi[443] freq_emi[444] freq_emi[445] freq_emi[446] freq_emi[447] freq_emi[448] freq_emi[449] freq_emi[450] freq_emi[451] freq_emi[452] freq_emi[453] freq_emi[454] freq_emi[455] freq_emi[456] freq_emi[457] freq_emi[458] freq_emi[459] freq_emi[460] freq_emi[461] freq_emi[462] freq_emi[463] freq_emi[464] freq_emi[465] freq_emi[466] freq_emi[467] freq_emi[468] freq_emi[469] freq_emi[470] freq_emi[471] freq_emi[472] freq_emi[473] freq_emi[474] freq_emi[475] freq_emi[476] freq_emi[477] freq_emi[478] freq_emi[479] freq_emi[480] freq_emi[481] freq_emi[482] freq_emi[483] freq_emi[484] freq_emi[485] freq_emi[486] freq_emi[487] freq_emi[488] freq_emi[489] freq_emi[490] freq_emi[491] freq_emi[492] freq_emi[493] freq_emi[494] freq_emi[495] freq_emi[496] freq_emi[497] freq_emi[498] freq_emi[499] freq_rec[0] freq_rec[1] freq_rec[2] freq_rec[3] freq_rec[4] freq_rec[5] freq_rec[6] freq_rec[7] freq_rec[8] freq_rec[9] freq_rec[10] freq_rec[11] freq_rec[12] freq_rec[13] freq_rec[14] freq_rec[15] freq_rec[16] freq_rec[17] freq_rec[18] freq_rec[19] freq_rec[20] freq_rec[21] freq_rec[22] freq_rec[23] freq_rec[24] freq_rec[25] freq_rec[26] freq_rec[27] freq_rec[28] freq_rec[29] freq_rec[30] freq_rec[31] freq_rec[32] freq_rec[33] freq_rec[34] freq_rec[35] freq_rec[36] freq_rec[37] freq_rec[38] freq_rec[39] freq_rec[40] freq_rec[41] freq_rec[42] freq_rec[43] freq_rec[44] freq_rec[45] freq_rec[46] freq_rec[47] freq_rec[48] freq_rec[49] freq_rec[50] freq_rec[51] freq_rec[52] freq_rec[53] freq_rec[54] freq_rec[55] freq_rec[56] freq_rec[57] freq_rec[58] freq_rec[59] freq_rec[60] freq_rec[61] freq_rec[62] freq_rec[63] freq_rec[64] freq_rec[65] freq_rec[66] freq_rec[67] freq_rec[68] freq_rec[69] freq_rec[70] freq_rec[71] freq_rec[72] freq_rec[73] freq_rec[74] freq_rec[75] freq_rec[76] freq_rec[77] freq_rec[78] freq_rec[79] freq_rec[80] freq_rec[81] freq_rec[82] freq_rec[83] freq_rec[84] freq_rec[85] freq_rec[86] freq_rec[87] freq_rec[88] freq_rec[89] freq_rec[90] freq_rec[91] freq_rec[92] freq_rec[93] freq_rec[94] freq_rec[95] freq_rec[96] freq_rec[97] freq_rec[98] freq_rec[99] freq_rec[100] freq_rec[101] freq_rec[102] freq_rec[103] freq_rec[104] freq_rec[105] freq_rec[106] freq_rec[107] freq_rec[108] freq_rec[109] freq_rec[110] freq_rec[111] freq_rec[112] freq_rec[113] freq_rec[114] freq_rec[115] freq_rec[116] freq_rec[117] freq_rec[118] freq_rec[119] freq_rec[120] freq_rec[121] freq_rec[122] freq_rec[123] freq_rec[124] freq_rec[125] freq_rec[126] freq_rec[127] freq_rec[128] freq_rec[129] freq_rec[130] freq_rec[131] freq_rec[132] freq_rec[133] freq_rec[134] freq_rec[135] freq_rec[136] freq_rec[137] freq_rec[138] freq_rec[139] freq_rec[140] freq_rec[141] freq_rec[142] freq_rec[143] freq_rec[144] freq_rec[145] freq_rec[146] freq_rec[147] freq_rec[148] freq_rec[149] freq_rec[150] freq_rec[151] freq_rec[152] freq_rec[153] freq_rec[154] freq_rec[155] freq_rec[156] freq_rec[157] freq_rec[158] freq_rec[159] freq_rec[160] freq_rec[161] freq_rec[162] freq_rec[163] freq_rec[164] freq_rec[165] freq_rec[166] freq_rec[167] freq_rec[168] freq_rec[169] freq_rec[170] freq_rec[171] freq_rec[172] freq_rec[173] freq_rec[174] freq_rec[175] freq_rec[176] freq_rec[177] freq_rec[178] freq_rec[179] freq_rec[180] freq_rec[181] freq_rec[182] freq_rec[183] freq_rec[184] freq_rec[185] freq_rec[186] freq_rec[187] freq_rec[188] freq_rec[189] freq_rec[190] freq_rec[191] freq_rec[192] freq_rec[193] freq_rec[194] freq_rec[195] freq_rec[196] freq_rec[197] freq_rec[198] freq_rec[199] freq_rec[200] freq_rec[201] freq_rec[202] freq_rec[203] freq_rec[204] freq_rec[205] freq_rec[206] freq_rec[207] freq_rec[208] freq_rec[209] freq_rec[210] freq_rec[211] freq_rec[212] freq_rec[213] freq_rec[214] freq_rec[215] freq_rec[216] freq_rec[217] freq_rec[218] freq_rec[219] freq_rec[220] freq_rec[221] freq_rec[222] freq_rec[223] freq_rec[224] freq_rec[225] freq_rec[226] freq_rec[227] freq_rec[228] freq_rec[229] freq_rec[230] freq_rec[231] freq_rec[232] freq_rec[233] freq_rec[234] freq_rec[235] freq_rec[236] freq_rec[237] freq_rec[238] freq_rec[239] freq_rec[240] freq_rec[241] freq_rec[242] freq_rec[243] freq_rec[244] freq_rec[245] freq_rec[246] freq_rec[247] freq_rec[248] freq_rec[249] freq_rec[250] freq_rec[251] freq_rec[252] freq_rec[253] freq_rec[254] freq_rec[255] freq_rec[256] freq_rec[257] freq_rec[258] freq_rec[259] freq_rec[260] freq_rec[261] freq_rec[262] freq_rec[263] freq_rec[264] freq_rec[265] freq_rec[266] freq_rec[267] freq_rec[268] freq_rec[269] freq_rec[270] freq_rec[271] freq_rec[272] freq_rec[273] freq_rec[274] freq_rec[275] freq_rec[276] freq_rec[277] freq_rec[278] freq_rec[279] freq_rec[280] freq_rec[281] freq_rec[282] freq_rec[283] freq_rec[284] freq_rec[285] freq_rec[286] freq_rec[287] freq_rec[288] freq_rec[289] freq_rec[290] freq_rec[291] freq_rec[292] freq_rec[293] freq_rec[294] freq_rec[295] freq_rec[296] freq_rec[297] freq_rec[298] freq_rec[299] freq_rec[300] freq_rec[301] freq_rec[302] freq_rec[303] freq_rec[304] freq_rec[305] freq_rec[306] freq_rec[307] freq_rec[308] freq_rec[309] freq_rec[310] freq_rec[311] freq_rec[312] freq_rec[313] freq_rec[314] freq_rec[315] freq_rec[316] freq_rec[317] freq_rec[318] freq_rec[319] freq_rec[320] freq_rec[321] freq_rec[322] freq_rec[323] freq_rec[324] freq_rec[325] freq_rec[326] freq_rec[327] freq_rec[328] freq_rec[329] freq_rec[330] freq_rec[331] freq_rec[332] freq_rec[333] freq_rec[334] freq_rec[335] freq_rec[336] freq_rec[337] freq_rec[338] freq_rec[339] freq_rec[340] freq_rec[341] freq_rec[342] freq_rec[343] freq_rec[344] freq_rec[345] freq_rec[346] freq_rec[347] freq_rec[348] freq_rec[349] freq_rec[350] freq_rec[351] freq_rec[352] freq_rec[353] freq_rec[354] freq_rec[355] freq_rec[356] freq_rec[357] freq_rec[358] freq_rec[359] freq_rec[360] freq_rec[361] freq_rec[362] freq_rec[363] freq_rec[364] freq_rec[365] freq_rec[366] freq_rec[367] freq_rec[368] freq_rec[369] freq_rec[370] freq_rec[371] freq_rec[372] freq_rec[373] freq_rec[374] freq_rec[375] freq_rec[376] freq_rec[377] freq_rec[378] freq_rec[379] freq_rec[380] freq_rec[381] freq_rec[382] freq_rec[383] freq_rec[384] freq_rec[385] freq_rec[386] freq_rec[387] freq_rec[388] freq_rec[389] freq_rec[390] freq_rec[391] freq_rec[392] freq_rec[393] freq_rec[394] freq_rec[395] freq_rec[396] freq_rec[397] freq_rec[398] freq_rec[399] freq_rec[400] freq_rec[401] freq_rec[402] freq_rec[403] freq_rec[404] freq_rec[405] freq_rec[406] freq_rec[407] freq_rec[408] freq_rec[409] freq_rec[410] freq_rec[411] freq_rec[412] freq_rec[413] freq_rec[414] freq_rec[415] freq_rec[416] freq_rec[417] freq_rec[418] freq_rec[419] freq_rec[420] freq_rec[421] freq_rec[422] freq_rec[423] freq_rec[424] freq_rec[425] freq_rec[426] freq_rec[427] freq_rec[428] freq_rec[429] freq_rec[430] freq_rec[431] freq_rec[432] freq_rec[433] freq_rec[434] freq_rec[435] freq_rec[436] freq_rec[437] freq_rec[438] freq_rec[439] freq_rec[440] freq_rec[441] freq_rec[442] freq_rec[443] freq_rec[444] freq_rec[445] freq_rec[446] freq_rec[447] freq_rec[448] freq_rec[449] freq_rec[450] freq_rec[451] freq_rec[452] freq_rec[453] freq_rec[454] freq_rec[455] freq_rec[456] freq_rec[457] freq_rec[458] freq_rec[459] freq_rec[460] freq_rec[461] freq_rec[462] freq_rec[463] freq_rec[464] freq_rec[465] freq_rec[466] freq_rec[467] freq_rec[468] freq_rec[469] freq_rec[470] freq_rec[471] freq_rec[472] freq_rec[473] freq_rec[474] freq_rec[475] freq_rec[476] freq_rec[477] freq_rec[478] freq_rec[479] freq_rec[480] freq_rec[481] freq_rec[482] freq_rec[483] freq_rec[484] freq_rec[485] freq_rec[486] freq_rec[487] freq_rec[488] freq_rec[489] freq_rec[490] freq_rec[491] freq_rec[492] freq_rec[493] freq_rec[494] freq_rec[495] freq_rec[496] freq_rec[497] freq_rec[498] freq_rec[499] </list>
v 	<values>392 322 98 392 42 168 196 56 84 294 182 224 238 112 224 98 322 378 252 266 154 154 266 294 182 238 294 224 280 252 308 392 364 588 602 294 336 252 28 182 238 336 336 182 350 14 224 238 392 420 252 448 294 294 392 294 154 280 238 294 238 448 294 308 224 336 210 504 308 238 224 280 336 112 84 364 252 308 14 294 252 280 322 112 196 364 294 434 252 392 238 168 434 168 294 294 224 406 168 266 112 210 182 322 350 280 252 182 308 252 266 84 210 238 154 224 168 224 126 630 224 210 224 420 308 126 280 112 182 462 322 266 420 364 518 224 112 238 70 252 252 322 392 196 238 182 350 154 392 252 252 182 266 350 280 252 210 154 266 238 126 182 98 154 406 154 392 182 252 154 322 154 112 266 14 462 252 252 168 252 322 266 616 238 168 490 224 266 308 308 294 210 210 168 196 168 154 140 98 294 210 448 126 322 210 322 168 350 126 266 210 210 196 448 126 294 294 420 224 294 112 168 182 126 224 336 322 196 238 224 210 336 224 70 266 252 252 336 336 196 196 266 196 126 140 252 238 350 574 210 196 210 154 210 126 182 168 476 196 112 266 210 182 238 266 322 406 126 294 168 224 294 252 196 308 238 196 252 378 280 266 210 168 210 322 84 126 308 280 224 294 350 252 280 126 112 182 462 224 252 308 462 266 182 84 140 266 294 238 532 280 154 350 350 238 294 518 154 238 210 406 126 84 98 126 308 266 56 336 182 182 224 308 210 364 266 210 238 252 182 588 140 336 154 336 210 476 252 308 98 308 350 420 266 308 224 182 140 252 308 238 280 308 210 280 252 294 168 364 280 350 196 168 294 224 196 448 280 210 224 476 294 280 266 210 322 280 280 420 434 196 252 294 266 238 308 238 364 168 420 322 168 238 406 112 168 224 434 266 252 252 490 336 476 294 238 238 406 224 224 294 168 378 294 224 280 182 252 322 350 294 294 518 252 140 126 168 252 196 322 532 154 84 224 308 294 336 210 378 378 140 210 168 182 252 322 350 210 238 308 266 196 70 266 42 266 224 14 210 364 196 210 168 364 322 252 112 308 154 308 224 210 308 266 14 322 336 70 378 252 364 322 168 294 224 140 336 350 420 210 630 560 336 630 280 406 434 294 322 532 420 462 476 350 462 336 560 616 490 504 392 392 504 532 420 476 532 462 518 490 546 154 602 350 364 532 574 490 266 420 476 98 574 420 588 252 462 476 630 182 490 210 532 56 154 532 392 518 476 532 476 210 532 546 462 574 448 266 546 476 462 518 574 350 322 602 490 546 252 532 490 518 560 350 434 126 532 196 490 630 476 406 672 406 532 532 462 644 406 504 350 448 420 560 588 518 490 420 546 490 504 322 448 476 392 462 406 462 364 392 462 448 462 182 546 364 518 350 420 224 560 504 182 126 280 462 350 476 308 490 490 560 630 434 476 420 588 392 630 490 14 420 504 588 518 490 448 392 504 476 364 420 336 392 644 392 630 420 14 392 560 392 350 28 252 224 490 490 406 490 560 504 378 476 406 252 462 504 546 546 532 448 448 406 434 406 392 378 336 532 448 210 364 560 448 560 406 588 364 504 448 448 434 686 364 532 532 182 462 532 350 406 420 364 462 574 560 434 476 462 448 98 462 308 504 490 490 574 574 434 434 504 434 364 378 490 476 588 336 448 434 448 392 448 364 420 406 238 434 350 504 448 420 476 504 560 644 364 532 406 462 532 490 434 546 476 434 490 616 518 504 448 406 448 560 322 364 546 518 462 532 588 490 518 364 350 420 224 462 490 546 224 504 420 322 378 504 532 476 294 518 392 112 588 476 532 280 392 476 448 644 364 322 336 364 546 504 294 574 420 420 462 70 448 602 504 448 476 490 420 350 378 574 392 574 448 238 490 546 336 546 588 182 504 546 462 420 378 490 546 476 518 546 448 42 490 56 406 602 518 588 434 406 532 462 434 686 518 448 462 238 532 518 504 448 560 518 518 658 672 434 490 56 504 476 546 476 126 406 182 560 406 476 644 350 406 462 672 504 490 490 252 574 714 532 476 476 644 462 462 532 406 616 532 462 518 420 490 560 588 532 532 280 490 378 364 406 490 434 84 294 392 322 462 546 532 574 448 616 616 378 448 406 420 14 560 588 448 476 546 504 434 308 504 280 504 462 252 448 602 434 448 406 126 560 490 350 546 392 546 462 448 546 504 252 560 574 308 616 490 602 560 406 532 462 378 574 588 658 448 </values>
v </instantiation>

Wall time: 12 s
